14961
1 0 0 1 0 1 1 0 0 0 0 1 0 0 1 0 1 1 1 1 1 0 0 0 1 0 0 0 0 1 
20 11 20 14 20 5 19 24 14 17 24 16 20 20 3 14 14 17 5 11 14 0 5 3 5 20 19 24 5 24 5 11 6 11 20 20 24 24 0 14 0 14 24 16 24 14 0 20 11 14 29 14 14 5 20 20 17 11 0 14 0 5 20 11 11 11 24 0 5 24 20 6 11 17 24 20 24 20 14 24 20 0 20 17 17 17 17 0 20 5 17 24 17 11 17 5 14 3 29 16 16 17 17 11 19 29 17 11 14 14 14 14 17 11 11 11 24 24 24 24 5 16 11 20 16 0 5 5 0 29 0 11 24 5 16 14 17 5 17 17 0 19 17 0 0 11 11 5 0 5 

Total Run Time: 237683 ms.
